GLPSOL--GLPK LP/MIP Solver 5.0
Parameter(s) specified in the command line:
 --lp ../modeles/20_379.lp --log 20_379.log
Reading problem data from '../modeles/20_379.lp'...
7661 rows, 15200 columns, 53160 non-zeros
7580 integer variables, all of which are binary
22887 lines were read
GLPK Integer Optimizer 5.0
7661 rows, 15200 columns, 53160 non-zeros
7580 integer variables, all of which are binary
Preprocessing...
7480 constraint coefficient(s) were reduced
7661 rows, 15180 columns, 53140 non-zeros
7580 integer variables, all of which are binary
Scaling...
 A: min|aij| =  2.785e-05  max|aij| =  4.000e+00  ratio =  1.436e+05
GM: min|aij| =  5.137e-02  max|aij| =  1.947e+01  ratio =  3.790e+02
EQ: min|aij| =  2.639e-03  max|aij| =  1.000e+00  ratio =  3.790e+02
2N: min|aij| =  1.782e-03  max|aij| =  1.768e+00  ratio =  9.923e+02
Constructing initial basis...
Size of triangular part is 7661
Solving LP relaxation...
GLPK Simplex Optimizer 5.0
7661 rows, 15180 columns, 53140 non-zeros
      0: obj =   4.000000000e+01 inf =   9.950e+01 (41)
Perturbing LP to avoid stalling [199]...
    419: obj =   4.997250070e-01 inf =   0.000e+00 (0)
Removing LP perturbation [1318]...
*  1318: obj =  -4.471054781e+00 inf =   3.260e-15 (0) 1
OPTIMAL LP SOLUTION FOUND
Integer optimization begins...
Long-step dual simplex will be used
+  1318: mip =     not found yet >=              -inf        (1; 0)
+  1522: mip =     not found yet >=  -4.471054781e+00        (204; 0)
+  1806: >>>>>  -4.471054781e+00 >=  -4.471054781e+00 < 0.1% (485; 0)
+  1806: mip =  -4.471054781e+00 >=     tree is empty   0.0% (0; 969)
INTEGER OPTIMAL SOLUTION FOUND
Time used:   10.5 secs
Memory used: 22.2 Mb (23306792 bytes)
